param p := 500;
param n := 9;
param e := 18;
param s := 100;

param	A: 1 2 3 4 5 6 7 8 9:=
		1	 1 0 0 0 0 0 0 0 0
		2	 0 0 0 1 0 0 0 0 0
		3	 0 0 0 0 0 0 1 0 0
		4	 0 0 0 0 0 0 0 1 0
		5	 0 0 0 1 0 0 0 0 0
		6	 1 0 0 0 0 0 0 0 0
		7	 0 0 0 0 0 0 0 1 0
		8	 0 0 0 0 1 0 0 0 0
		9	 0 1 0 0 0 0 0 0 0
		10	 0 0 1 0 0 0 0 0 0
		11	 0 0 0 0 0 1 0 0 0
		12	 1 0 0 0 0 0 0 0 0
		13	 0 0 0 0 1 0 0 0 0
		14	 0 0 1 0 0 0 0 0 0
		15	 0 0 0 0 0 0 1 0 0
		16	 0 0 0 0 1 0 0 0 0
		17	 0 0 0 0 0 0 0 1 0
		18	 0 0 0 0 1 0 0 0 0;

param	B: 1 2 3 4 5 6 7 8 9:=
		1	 0 0 0 1 0 0 0 0 0
		2	 0 0 0 0 0 0 1 0 0
		3	 0 0 0 0 0 0 0 1 0
		4	 0 0 0 0 0 0 0 0 1
		5	 0 0 0 0 1 0 0 0 0
		6	 0 1 0 0 0 0 0 0 0
		7	 0 0 0 0 1 0 0 0 0
		8	 0 1 0 0 0 0 0 0 0
		9	 0 0 1 0 0 0 0 0 0
		10	 0 0 0 0 0 1 0 0 0
		11	 0 0 0 0 0 0 0 0 1
		12	 0 0 0 0 1 0 0 0 0
		13	 0 0 0 0 0 0 0 0 1
		14	 0 1 0 0 0 0 0 0 0
		15	 0 0 1 0 0 0 0 0 0
		16	 0 0 0 0 0 1 0 0 0
		17	 0 0 0 0 0 0 1 0 0
		18	 0 0 0 1 0 0 0 0 0;

param	C :=
		1	142174205.61
		2	169957864.82
		3	141412778.51
		4	238167548.19
		5	247030876.96
		6	150787319.08
		7	135026293.43
		8	246645604.80
		9	150223467.61
		10	168825289.42
		11	200889700.22
		12	193537446.47
		13	141738481.98
		14	203314492.02
		15	136423058.17
		16	204846799.14
		17	187280286.39
		18	172853162.40;

param	L :=
		1	9.70
		2	8.75
		3	7.61
		4	9.18
		5	9.95
		6	4.75
		7	5.97
		8	8.66
		9	7.48
		10	7.34
		11	8.54
		12	5.78
		13	5.74
		14	9.28
		15	9.69
		16	7.09
		17	4.89
		18	4.08;

param	S_M :=
		1	315410817539.04
		2	218508516372.49
		3	158214552035.85
		4	361994722331.28
		5	107366292508.71
		6	347385887518.40
		7	153601138399.79
		8	489942460584.87
		9	140037758277.71
		10	440763426986.68
		11	363931808943.08
		12	156427794657.23
		13	440710289733.57
		14	398599657446.80
		15	226142458882.20
		16	147727357546.67
		17	223069395565.97
		18	256705259282.18
		19	168180657197.93
		20	402237837689.34
		21	155387815577.49
		22	482444207618.72
		23	340756653280.64
		24	461595043321.25
		25	125107646479.04
		26	124921477625.74
		27	249223642294.82
		28	251471417418.01
		29	364968012070.34
		30	338266146666.32
		31	333934675298.85
		32	249702436161.48
		33	316958235125.90
		34	285140659306.29
		35	437953887852.50
		36	228612679719.71
		37	318979086326.47
		38	478911609659.02
		39	472270181625.94
		40	358970467426.13
		41	120972185130.61
		42	154616632232.58
		43	493611754453.54
		44	237052623411.61
		45	255257579904.61
		46	376003927737.05
		47	290847730376.07
		48	311303624470.78
		49	121628060313.75
		50	407828905933.54
		51	177244943977.21
		52	332750079942.72
		53	193529272850.54
		54	305607361806.06
		55	131920068781.96
		56	458860143850.62
		57	354881406357.91
		58	418388972215.73
		59	144489661708.15
		60	142039107265.50
		61	270272164069.73
		62	368546215407.17
		63	287425509436.02
		64	369215937685.51
		65	238607554058.26
		66	415795340213.18
		67	192769145429.35
		68	232842105010.70
		69	155057850030.41
		70	388310166543.76
		71	405087985450.51
		72	307362771289.40
		73	358074723162.68
		74	465831514833.35
		75	381330897933.80
		76	205392298725.14
		77	137356048604.41
		78	327763847823.94
		79	323604984461.40
		80	343559796915.50
		81	165129556051.68
		82	497950819605.52
		83	239399117334.07
		84	276286219515.57
		85	374410290080.47
		86	370533884060.64
		87	212483721454.31
		88	159342012572.02
		89	115258818767.18
		90	448119689367.68
		91	241081029217.55
		92	469775682088.64
		93	321528713410.43
		94	398588827748.12
		95	305899202429.60
		96	155884306350.92
		97	144688687086.17
		98	451530417579.02
		99	403544084002.41
		100	204685978568.85;

param	S_C :=
		1	999828424.83
		2	2222188669.80
		3	516864869.38
		4	1091958625.99
		5	1647403867.51
		6	2398582126.93
		7	1637571032.54
		8	1581126126.38
		9	1423195661.17
		10	1084270246.12
		11	1587784964.47
		12	760787378.23
		13	2443962501.28
		14	653587092.65
		15	2343492979.94
		16	1850983329.22
		17	1253706142.46
		18	1088170854.50
		19	2459402875.07
		20	1378671871.20
		21	811779226.57
		22	2370020167.04
		23	787981213.18
		24	2328531740.60
		25	2368158234.89
		26	2242194453.67
		27	1101932973.51
		28	2481772293.58
		29	1084267002.08
		30	1019658274.95
		31	1520817142.54
		32	1252620833.43
		33	2234681158.59
		34	643958355.11
		35	1997400955.65
		36	596240351.60
		37	975469854.05
		38	2429510709.77
		39	2328257459.27
		40	1748286471.80
		41	2461698018.77
		42	2438677937.72
		43	684666215.99
		44	554108392.51
		45	596862795.88
		46	1845788928.09
		47	2154103884.13
		48	1150194727.46
		49	1435377987.84
		50	694968200.06
		51	809564164.70
		52	1932561412.11
		53	1630844352.16
		54	2009042482.69
		55	2269317686.45
		56	1602687531.55
		57	2381460216.63
		58	1416233992.01
		59	2251661916.87
		60	1192275780.91
		61	989441168.63
		62	664551509.84
		63	2028782237.58
		64	1209064332.33
		65	1003227962.76
		66	2153643519.33
		67	1111547403.56
		68	1055751635.67
		69	2015764453.63
		70	2376091286.67
		71	1931561984.53
		72	826044842.69
		73	1802925399.50
		74	1185254388.41
		75	1086045631.55
		76	1855797770.99
		77	1350039700.99
		78	2262055322.55
		79	1397349989.50
		80	1985444042.64
		81	519952407.41
		82	2335538581.23
		83	559370614.89
		84	2059331054.80
		85	849761587.68
		86	1878790867.21
		87	870560055.63
		88	977618735.20
		89	863956758.44
		90	1570528118.62
		91	1199174989.24
		92	837637237.01
		93	1718512946.11
		94	1601953259.05
		95	978746219.79
		96	2182604473.80
		97	854145272.96
		98	1328232113.23
		99	1108303124.67
		100	1760666515.33;

param	S_T :=
		1	59.90
		2	96.27
		3	60.30
		4	75.88
		5	85.42
		6	44.44
		7	75.35
		8	61.21
		9	58.49
		10	75.62
		11	59.76
		12	71.63
		13	87.18
		14	72.11
		15	57.40
		16	40.80
		17	83.22
		18	31.16
		19	81.05
		20	81.29
		21	26.76
		22	36.00
		23	44.51
		24	63.21
		25	92.80
		26	49.27
		27	86.26
		28	41.34
		29	96.90
		30	91.56
		31	93.36
		32	79.50
		33	86.01
		34	56.57
		35	71.81
		36	48.13
		37	23.01
		38	55.51
		39	58.14
		40	85.55
		41	56.29
		42	38.81
		43	57.92
		44	88.72
		45	70.68
		46	91.67
		47	79.15
		48	49.88
		49	71.58
		50	25.64
		51	85.13
		52	24.90
		53	85.23
		54	96.68
		55	66.85
		56	35.91
		57	64.25
		58	46.95
		59	32.27
		60	34.21
		61	94.24
		62	80.95
		63	80.48
		64	59.64
		65	32.59
		66	70.48
		67	81.77
		68	77.12
		69	93.84
		70	70.88
		71	57.33
		72	32.48
		73	54.61
		74	84.26
		75	90.62
		76	92.73
		77	90.81
		78	73.53
		79	77.03
		80	79.80
		81	40.37
		82	59.33
		83	96.32
		84	51.26
		85	43.99
		86	83.40
		87	35.21
		88	34.31
		89	36.05
		90	68.26
		91	32.31
		92	87.56
		93	65.74
		94	79.65
		95	69.69
		96	85.73
		97	68.41
		98	77.16
		99	96.82
		100	79.11;

param	S_H :=
		1	15041833.61
		2	17228233.14
		3	24255222.04
		4	12819472.30
		5	7545523.78
		6	21387805.36
		7	12220501.84
		8	10030675.62
		9	20885229.01
		10	11352644.28
		11	8565094.72
		12	9746896.60
		13	23625556.15
		14	17734707.52
		15	13906047.02
		16	19990152.18
		17	10417248.90
		18	14874220.65
		19	18144443.27
		20	21644571.90
		21	21258855.23
		22	14590026.99
		23	19707618.53
		24	18154502.61
		25	21722593.45
		26	16440823.69
		27	6171318.47
		28	20866496.25
		29	9357405.73
		30	23759643.14
		31	5726361.35
		32	22697193.15
		33	9060992.40
		34	24884959.52
		35	12158800.21
		36	24995917.58
		37	8212631.92
		38	18635835.35
		39	19663308.37
		40	16726823.89
		41	9404180.67
		42	10655651.84
		43	14305884.48
		44	17810670.25
		45	11462175.02
		46	5589011.00
		47	13841410.16
		48	18835986.96
		49	11397611.17
		50	7190760.94
		51	14547420.04
		52	9022909.53
		53	18708862.49
		54	24117947.37
		55	21947161.41
		56	6422026.91
		57	16447441.82
		58	10575291.89
		59	14874432.50
		60	12798845.48
		61	23364979.69
		62	18286493.31
		63	13419105.48
		64	23921586.44
		65	21247118.13
		66	21641823.01
		67	5314262.22
		68	15245091.21
		69	5716619.02
		70	14217933.69
		71	12627966.47
		72	17547663.38
		73	14213517.13
		74	9608744.59
		75	10877340.60
		76	22637411.99
		77	9329721.66
		78	15481357.67
		79	23079842.63
		80	22124252.24
		81	23849841.87
		82	8116821.20
		83	12816614.70
		84	24972325.81
		85	8637598.74
		86	13541614.39
		87	10200817.21
		88	11515422.49
		89	7088976.50
		90	6754114.06
		91	8346501.38
		92	6032392.21
		93	22583733.33
		94	11576467.51
		95	18132827.14
		96	16006182.07
		97	23214276.41
		98	13379901.49
		99	13686636.77
		100	20029112.62;

param	S_W :=
		1	0.44
		2	0.69
		3	0.26
		4	0.08
		5	0.29
		6	0.96
		7	0.85
		8	0.03
		9	0.45
		10	0.12
		11	0.23
		12	0.81
		13	0.36
		14	0.87
		15	0.18
		16	0.59
		17	0.06
		18	0.69
		19	0.78
		20	0.99
		21	0.34
		22	0.23
		23	0.76
		24	0.87
		25	0.75
		26	0.50
		27	0.58
		28	0.29
		29	0.51
		30	0.04
		31	0.39
		32	0.86
		33	0.82
		34	0.65
		35	0.24
		36	1.00
		37	0.49
		38	0.64
		39	0.84
		40	0.23
		41	0.84
		42	0.13
		43	0.68
		44	0.97
		45	0.38
		46	0.01
		47	0.60
		48	0.66
		49	0.00
		50	0.59
		51	0.16
		52	0.11
		53	0.12
		54	0.78
		55	0.79
		56	0.05
		57	0.04
		58	0.18
		59	0.48
		60	0.48
		61	0.79
		62	0.38
		63	0.35
		64	0.72
		65	0.17
		66	0.17
		67	0.26
		68	0.99
		69	0.09
		70	0.86
		71	0.39
		72	0.27
		73	0.79
		74	0.21
		75	0.99
		76	0.44
		77	0.21
		78	0.92
		79	0.11
		80	0.49
		81	0.05
		82	0.36
		83	0.23
		84	0.78
		85	0.39
		86	0.17
		87	0.73
		88	0.04
		89	0.52
		90	0.37
		91	0.75
		92	0.27
		93	0.10
		94	0.38
		95	0.70
		96	0.59
		97	0.90
		98	0.09
		99	0.46
		100	0.37;

param	N_M :=
		1	981066758503.07
		2	703226880391.32
		3	1229608885001.91
		4	1025955721563.66
		5	454939858347.13
		6	566838716612.51
		7	459539606115.27
		8	1113324157546.47
		9	1035460638807.01;

param	N_C :=
		1	2964162281.36
		2	3624820205.96
		3	8895956202.01
		4	4181983446.91
		5	9415574696.78
		6	8264969608.58
		7	8722351753.24
		8	5754657592.32
		9	3865683060.00;

param	N_K :=
		1	89
		2	30
		3	83
		4	55
		5	72
		6	64
		7	36
		8	33
		9	64;

param	U_N: 1 2 3 4 5 6 7 8 9:=
		1	 1 0 0 1 0 0 0 0 0
		2	 0 1 1 0 0 0 0 0 0
		3	 0 0 0 0 0 1 0 0 1
		4	 1 0 0 0 0 0 0 0 0
		5	 0 0 0 0 0 1 0 0 1
		6	 1 1 0 1 1 0 0 0 0
		7	 0 0 0 1 0 0 0 0 0
		8	 0 0 0 0 1 0 0 0 0
		9	 1 1 0 1 1 0 0 0 0
		10	 1 1 0 1 1 0 0 0 0
		11	 1 0 0 0 0 0 0 0 0
		12	 1 0 0 1 0 0 0 0 0
		13	 0 0 0 0 0 0 0 1 0
		14	 0 0 0 0 0 0 0 1 1
		15	 0 0 0 0 0 0 0 0 1
		16	 0 0 0 0 0 0 0 1 0
		17	 0 1 0 0 0 0 0 0 0
		18	 0 0 0 0 0 0 1 1 0
		19	 0 0 0 0 0 1 0 0 0
		20	 0 1 0 0 1 0 0 0 0
		21	 0 0 0 0 0 1 0 0 0
		22	 0 1 1 0 0 0 0 0 0
		23	 0 0 0 0 1 0 0 0 0
		24	 1 0 0 1 0 0 0 0 0
		25	 0 0 0 0 0 0 0 1 1
		26	 0 0 1 0 0 1 0 0 0
		27	 1 0 0 1 0 0 0 0 0
		28	 0 0 0 0 0 0 1 0 0
		29	 1 0 0 0 0 0 0 0 0
		30	 1 0 0 0 0 0 0 0 0
		31	 0 0 0 0 0 1 0 0 1
		32	 0 0 0 0 1 0 0 1 0
		33	 0 0 0 0 0 0 0 1 1
		34	 0 1 1 0 0 0 0 0 0
		35	 0 0 0 0 1 0 0 1 0
		36	 0 0 1 0 0 0 0 0 0
		37	 0 0 0 0 0 0 1 1 0
		38	 0 0 0 0 1 0 0 0 0
		39	 0 0 0 1 0 0 1 0 0
		40	 0 0 0 0 1 1 0 0 0
		41	 0 0 0 1 1 0 0 0 0
		42	 0 0 0 0 1 1 0 1 1
		43	 0 1 1 0 1 1 0 0 0
		44	 0 0 0 1 0 0 1 0 0
		45	 0 0 1 0 0 0 0 0 0
		46	 0 0 0 0 0 0 0 0 1
		47	 0 0 0 0 0 0 0 0 1
		48	 1 0 0 0 0 0 0 0 0
		49	 1 1 0 1 1 0 0 0 0
		50	 0 0 0 0 1 0 0 1 0
		51	 0 0 0 1 1 0 0 0 0
		52	 0 0 0 1 0 0 0 0 0
		53	 1 1 0 1 1 0 0 0 0
		54	 0 0 0 1 1 0 1 1 0
		55	 0 0 0 0 0 1 0 0 1
		56	 0 0 0 0 1 0 0 1 0
		57	 0 0 0 1 1 0 0 0 0
		58	 0 0 0 0 0 0 1 0 0
		59	 0 0 0 1 0 0 0 0 0
		60	 1 0 0 1 0 0 0 0 0
		61	 1 0 0 0 0 0 0 0 0
		62	 0 0 0 0 0 0 0 1 1
		63	 0 0 0 0 0 0 1 0 0
		64	 0 0 0 0 0 1 0 0 1
		65	 0 0 0 1 1 0 0 0 0
		66	 0 0 0 0 0 0 1 1 0
		67	 0 1 0 0 0 0 0 0 0
		68	 0 1 0 0 0 0 0 0 0
		69	 1 0 0 0 0 0 0 0 0
		70	 0 0 1 0 0 0 0 0 0
		71	 0 0 0 0 0 1 0 0 0
		72	 1 0 0 0 0 0 0 0 0
		73	 0 1 1 0 1 1 0 0 0
		74	 0 0 0 0 1 1 0 0 0
		75	 0 0 1 0 0 1 0 0 0
		76	 0 0 0 1 1 0 1 1 0
		77	 0 0 0 0 1 0 0 0 0
		78	 0 0 0 0 0 1 0 0 1
		79	 0 0 0 1 0 0 1 0 0
		80	 0 0 0 0 1 0 0 1 0
		81	 0 0 0 0 0 0 1 1 0
		82	 1 1 0 1 1 0 0 0 0
		83	 0 0 0 0 0 0 1 0 0
		84	 0 0 0 0 1 1 0 1 1
		85	 0 0 0 0 0 0 0 1 1
		86	 0 0 1 0 0 0 0 0 0
		87	 0 0 0 1 0 0 1 0 0
		88	 0 0 0 0 0 0 1 1 0
		89	 0 0 0 0 0 0 0 1 0
		90	 0 0 1 0 0 1 0 0 0
		91	 0 1 1 0 0 0 0 0 0
		92	 0 0 0 0 0 0 1 0 0
		93	 0 0 0 0 0 0 0 0 1
		94	 0 0 0 1 0 0 0 0 0
		95	 0 0 0 0 0 0 1 1 0
		96	 0 1 1 0 1 1 0 0 0
		97	 0 0 0 0 0 0 1 0 0
		98	 0 0 1 0 0 1 0 0 0
		99	 0 0 1 0 0 0 0 0 0
		100	 0 0 1 0 0 0 0 0 0
		101	 1 1 0 0 0 0 0 0 0
		102	 0 0 0 0 0 0 0 1 0
		103	 0 0 1 0 0 0 0 0 0
		104	 0 1 1 0 1 1 0 0 0
		105	 0 0 0 0 0 1 0 0 1
		106	 0 1 0 0 1 0 0 0 0
		107	 0 0 0 0 0 1 0 0 0
		108	 0 0 1 0 0 0 0 0 0
		109	 0 1 0 0 0 0 0 0 0
		110	 0 0 0 0 1 0 0 1 0
		111	 0 1 0 0 1 0 0 0 0
		112	 0 0 0 0 0 0 0 1 1
		113	 0 0 0 0 0 1 0 0 1
		114	 0 0 0 0 0 0 0 0 1
		115	 0 0 0 0 0 1 0 0 0
		116	 0 1 0 0 1 0 0 0 0
		117	 0 0 1 0 0 1 0 0 0
		118	 0 1 0 0 0 0 0 0 0
		119	 0 0 0 1 1 0 0 0 0
		120	 1 0 0 1 0 0 0 0 0
		121	 0 0 0 0 0 0 0 1 0
		122	 1 0 0 1 0 0 0 0 0
		123	 0 0 0 0 0 0 0 1 0
		124	 0 0 0 0 0 1 0 0 0
		125	 0 0 0 0 0 1 0 0 0
		126	 1 0 0 0 0 0 0 0 0
		127	 0 0 0 0 1 0 0 0 0
		128	 0 0 0 0 1 1 0 0 0
		129	 0 0 0 0 0 1 0 0 1
		130	 0 0 0 0 0 1 0 0 0
		131	 0 0 0 0 0 1 0 0 1
		132	 0 0 0 0 0 0 0 0 1
		133	 0 0 0 0 0 0 0 0 1
		134	 0 1 0 0 0 0 0 0 0
		135	 0 0 0 0 1 1 0 1 1
		136	 1 0 0 0 0 0 0 0 0
		137	 1 1 0 0 0 0 0 0 0
		138	 0 0 0 0 0 1 0 0 1
		139	 0 0 0 0 0 0 0 1 0
		140	 1 1 0 0 0 0 0 0 0
		141	 0 1 0 0 0 0 0 0 0
		142	 0 0 0 0 0 0 1 1 0
		143	 0 0 0 0 1 1 0 1 1
		144	 0 0 0 0 0 0 0 1 1
		145	 1 1 0 1 1 0 0 0 0
		146	 0 0 0 1 1 0 0 0 0
		147	 0 0 0 1 0 0 0 0 0
		148	 0 0 0 0 0 0 0 1 1
		149	 0 0 0 0 0 0 0 1 0
		150	 0 0 0 0 0 1 0 0 1
		151	 1 0 0 0 0 0 0 0 0
		152	 1 1 0 1 1 0 0 0 0
		153	 1 0 0 1 0 0 0 0 0
		154	 1 0 0 0 0 0 0 0 0
		155	 0 0 0 0 0 0 1 0 0
		156	 0 0 0 1 0 0 1 0 0
		157	 0 0 0 0 0 1 0 0 0
		158	 1 1 0 0 0 0 0 0 0
		159	 0 0 0 1 0 0 1 0 0
		160	 0 0 0 0 0 0 0 1 1
		161	 1 1 0 1 1 0 0 0 0
		162	 0 0 0 0 0 0 0 1 1
		163	 1 0 0 0 0 0 0 0 0
		164	 0 0 0 0 0 1 0 0 1
		165	 0 0 0 0 0 0 0 0 1
		166	 1 0 0 0 0 0 0 0 0
		167	 1 0 0 1 0 0 0 0 0
		168	 0 0 0 0 0 0 0 0 1
		169	 0 0 0 0 0 1 0 0 0
		170	 0 0 0 0 0 0 1 1 0
		171	 0 0 0 0 1 0 0 1 0
		172	 1 1 0 0 0 0 0 0 0
		173	 0 0 0 0 1 1 0 0 0
		174	 0 1 0 0 0 0 0 0 0
		175	 0 1 1 0 1 1 0 0 0
		176	 0 0 0 0 0 0 0 1 0
		177	 1 1 0 1 1 0 0 0 0
		178	 0 0 1 0 0 0 0 0 0
		179	 0 1 1 0 1 1 0 0 0
		180	 0 0 0 0 1 0 0 1 0
		181	 0 0 1 0 0 0 0 0 0
		182	 0 0 0 0 0 1 0 0 0
		183	 0 0 0 0 0 1 0 0 1
		184	 0 1 1 0 0 0 0 0 0
		185	 0 0 0 0 0 0 1 0 0
		186	 0 0 0 0 1 1 0 1 1
		187	 0 0 0 0 1 1 0 0 0
		188	 0 0 0 0 1 0 0 1 0
		189	 1 1 0 1 1 0 0 0 0
		190	 0 0 1 0 0 0 0 0 0
		191	 0 0 0 0 1 1 0 0 0
		192	 0 0 0 0 0 0 1 1 0
		193	 0 1 1 0 1 1 0 0 0
		194	 0 0 0 0 0 0 0 1 0
		195	 0 0 1 0 0 0 0 0 0
		196	 0 0 0 0 0 0 1 0 0
		197	 0 0 0 1 0 0 0 0 0
		198	 0 0 0 0 0 1 0 0 1
		199	 0 1 1 0 0 0 0 0 0
		200	 0 0 0 0 0 1 0 0 1
		201	 0 0 0 0 1 1 0 1 1
		202	 0 0 0 0 0 0 1 0 0
		203	 0 1 1 0 0 0 0 0 0
		204	 0 0 0 0 0 1 0 0 1
		205	 0 0 0 1 1 0 0 0 0
		206	 0 0 0 0 0 1 0 0 0
		207	 0 1 1 0 0 0 0 0 0
		208	 0 1 0 0 1 0 0 0 0
		209	 0 0 0 0 0 1 0 0 1
		210	 1 0 0 1 0 0 0 0 0
		211	 0 0 0 1 0 0 0 0 0
		212	 0 0 0 0 0 0 1 0 0
		213	 0 1 0 0 0 0 0 0 0
		214	 0 0 0 1 1 0 1 1 0
		215	 0 0 0 1 1 0 0 0 0
		216	 0 0 0 0 1 1 0 1 1
		217	 0 0 0 1 0 0 0 0 0
		218	 0 0 0 0 0 0 1 1 0
		219	 1 1 0 0 0 0 0 0 0
		220	 0 1 0 0 1 0 0 0 0
		221	 0 0 0 0 0 0 0 0 1
		222	 0 0 0 0 0 0 0 1 1
		223	 0 0 0 0 0 0 0 1 1
		224	 0 1 1 0 1 1 0 0 0
		225	 0 0 0 1 0 0 0 0 0
		226	 0 0 0 1 0 0 0 0 0
		227	 1 0 0 0 0 0 0 0 0
		228	 1 0 0 1 0 0 0 0 0
		229	 0 0 0 0 1 1 0 1 1
		230	 0 1 0 0 1 0 0 0 0
		231	 0 0 0 0 0 0 0 1 0
		232	 1 0 0 0 0 0 0 0 0
		233	 0 0 0 0 1 1 0 0 0
		234	 0 0 0 0 0 0 0 1 1
		235	 0 1 0 0 0 0 0 0 0
		236	 0 0 0 0 0 1 0 0 0
		237	 0 0 0 0 0 0 1 0 0
		238	 0 1 0 0 1 0 0 0 0
		239	 1 0 0 1 0 0 0 0 0
		240	 0 0 0 0 0 1 0 0 1
		241	 0 0 1 0 0 0 0 0 0
		242	 1 1 0 1 1 0 0 0 0
		243	 0 1 0 0 0 0 0 0 0
		244	 0 0 0 0 0 0 0 1 1
		245	 0 0 0 1 0 0 0 0 0
		246	 0 0 1 0 0 1 0 0 0
		247	 0 0 0 1 0 0 1 0 0
		248	 0 0 0 0 0 1 0 0 1
		249	 0 0 0 0 0 0 0 1 1
		250	 0 0 1 0 0 1 0 0 0
		251	 1 0 0 1 0 0 0 0 0
		252	 0 0 0 0 0 0 0 1 0
		253	 0 0 0 0 1 0 0 1 0
		254	 0 0 0 0 0 0 1 1 0
		255	 1 1 0 1 1 0 0 0 0
		256	 0 0 0 1 1 0 1 1 0
		257	 0 0 0 0 1 0 0 0 0
		258	 1 1 0 0 0 0 0 0 0
		259	 0 1 1 0 0 0 0 0 0
		260	 0 1 0 0 1 0 0 0 0
		261	 1 0 0 0 0 0 0 0 0
		262	 0 0 0 1 0 0 0 0 0
		263	 0 0 0 0 1 0 0 0 0
		264	 0 0 1 0 0 1 0 0 0
		265	 1 0 0 0 0 0 0 0 0
		266	 0 0 1 0 0 1 0 0 0
		267	 1 1 0 0 0 0 0 0 0
		268	 0 1 0 0 0 0 0 0 0
		269	 1 0 0 0 0 0 0 0 0
		270	 0 0 0 1 0 0 1 0 0
		271	 0 0 0 0 1 0 0 0 0
		272	 0 0 0 0 0 0 0 0 1
		273	 0 0 0 0 0 0 0 0 1
		274	 1 0 0 0 0 0 0 0 0
		275	 0 0 0 0 1 0 0 0 0
		276	 0 0 0 0 0 0 0 0 1
		277	 0 0 0 1 1 0 0 0 0
		278	 0 0 1 0 0 1 0 0 0
		279	 1 0 0 1 0 0 0 0 0
		280	 0 0 0 1 1 0 0 0 0
		281	 1 0 0 1 0 0 0 0 0
		282	 0 0 0 0 0 0 1 1 0
		283	 0 1 0 0 1 0 0 0 0
		284	 0 0 0 0 0 0 1 1 0
		285	 0 0 0 0 0 0 1 0 0
		286	 0 0 0 0 0 1 0 0 0
		287	 0 0 0 0 0 0 1 1 0
		288	 0 0 1 0 0 0 0 0 0
		289	 0 0 0 0 0 0 1 1 0
		290	 0 0 0 0 0 0 1 1 0
		291	 0 1 1 0 0 0 0 0 0
		292	 0 0 0 0 0 0 1 1 0
		293	 0 1 0 0 0 0 0 0 0
		294	 0 0 0 1 1 0 0 0 0
		295	 0 0 0 0 1 0 0 0 0
		296	 0 0 0 0 1 0 0 1 0
		297	 0 0 0 0 0 0 1 1 0
		298	 0 0 0 0 0 0 0 0 1
		299	 0 0 0 0 0 0 0 1 0
		300	 0 1 1 0 0 0 0 0 0
		301	 1 0 0 0 0 0 0 0 0
		302	 0 0 1 0 0 0 0 0 0
		303	 0 1 1 0 1 1 0 0 0
		304	 0 0 0 0 1 0 0 1 0
		305	 0 0 0 1 0 0 0 0 0
		306	 0 0 0 1 1 0 1 1 0
		307	 0 0 0 0 0 0 1 0 0
		308	 0 0 0 1 0 0 0 0 0
		309	 1 0 0 1 0 0 0 0 0
		310	 0 1 1 0 1 1 0 0 0
		311	 0 0 0 0 0 0 1 0 0
		312	 0 0 0 1 0 0 0 0 0
		313	 0 0 0 0 0 0 0 1 0
		314	 0 0 0 1 0 0 1 0 0
		315	 0 0 1 0 0 0 0 0 0
		316	 0 0 0 0 1 0 0 0 0
		317	 0 1 1 0 0 0 0 0 0
		318	 1 1 0 0 0 0 0 0 0
		319	 0 0 0 1 0 0 0 0 0
		320	 0 1 1 0 0 0 0 0 0
		321	 0 0 0 0 1 1 0 1 1
		322	 1 1 0 0 0 0 0 0 0
		323	 0 0 1 0 0 1 0 0 0
		324	 0 1 0 0 0 0 0 0 0
		325	 0 0 1 0 0 1 0 0 0
		326	 0 0 1 0 0 0 0 0 0
		327	 0 1 1 0 1 1 0 0 0
		328	 1 1 0 0 0 0 0 0 0
		329	 0 1 1 0 1 1 0 0 0
		330	 0 0 1 0 0 1 0 0 0
		331	 0 0 0 0 1 0 0 0 0
		332	 0 0 1 0 0 1 0 0 0
		333	 0 0 0 1 0 0 0 0 0
		334	 0 1 1 0 1 1 0 0 0
		335	 1 1 0 1 1 0 0 0 0
		336	 0 0 0 0 0 0 0 1 0
		337	 0 1 1 0 0 0 0 0 0
		338	 0 0 0 0 1 1 0 1 1
		339	 0 0 0 0 0 0 1 1 0
		340	 0 0 0 0 0 0 0 1 1
		341	 0 0 0 0 0 0 1 1 0
		342	 0 0 0 0 1 0 0 1 0
		343	 0 0 0 1 0 0 1 0 0
		344	 0 1 1 0 0 0 0 0 0
		345	 1 1 0 1 1 0 0 0 0
		346	 0 0 1 0 0 0 0 0 0
		347	 0 0 0 0 0 0 1 1 0
		348	 0 0 0 1 1 0 0 0 0
		349	 0 0 0 1 1 0 0 0 0
		350	 0 0 0 0 0 1 0 0 1
		351	 0 0 0 1 0 0 1 0 0
		352	 1 0 0 0 0 0 0 0 0
		353	 0 0 0 0 0 0 0 1 1
		354	 0 0 0 1 0 0 1 0 0
		355	 0 1 0 0 1 0 0 0 0
		356	 0 0 0 0 0 0 1 0 0
		357	 0 1 0 0 0 0 0 0 0
		358	 0 0 1 0 0 0 0 0 0
		359	 1 1 0 1 1 0 0 0 0
		360	 0 0 0 0 0 0 0 1 1
		361	 0 0 0 1 1 0 1 1 0
		362	 1 0 0 0 0 0 0 0 0
		363	 0 0 0 1 0 0 0 0 0
		364	 1 1 0 1 1 0 0 0 0
		365	 0 0 0 1 0 0 0 0 0
		366	 1 0 0 0 0 0 0 0 0
		367	 0 0 0 0 0 0 0 1 1
		368	 0 0 0 0 0 1 0 0 1
		369	 1 1 0 1 1 0 0 0 0
		370	 0 0 0 0 0 1 0 0 0
		371	 0 0 0 1 0 0 1 0 0
		372	 0 0 0 0 0 1 0 0 1
		373	 0 0 0 0 0 1 0 0 1
		374	 0 0 0 0 0 0 0 1 1
		375	 0 1 1 0 1 1 0 0 0
		376	 0 0 0 0 0 0 0 1 1
		377	 1 0 0 1 0 0 0 0 0
		378	 0 0 0 0 0 0 1 0 0
		379	 0 1 0 0 0 0 0 0 0
		380	 0 0 0 0 0 0 1 0 0
		381	 0 0 0 0 0 1 0 0 1
		382	 0 0 0 0 0 0 0 1 0
		383	 1 0 0 0 0 0 0 0 0
		384	 1 1 0 1 1 0 0 0 0
		385	 0 0 0 0 1 0 0 0 0
		386	 0 0 1 0 0 0 0 0 0
		387	 0 1 1 0 1 1 0 0 0
		388	 0 0 0 0 1 0 0 0 0
		389	 0 1 1 0 1 1 0 0 0
		390	 0 0 0 0 0 0 0 1 1
		391	 1 0 0 0 0 0 0 0 0
		392	 0 0 0 1 1 0 0 0 0
		393	 0 0 0 0 1 0 0 0 0
		394	 0 0 0 0 0 0 1 0 0
		395	 0 1 0 0 0 0 0 0 0
		396	 0 0 1 0 0 0 0 0 0
		397	 0 0 0 0 0 0 1 0 0
		398	 0 1 1 0 1 1 0 0 0
		399	 0 1 0 0 0 0 0 0 0
		400	 0 0 0 0 0 0 1 0 0
		401	 0 0 0 0 0 0 0 1 1
		402	 0 0 0 0 1 1 0 0 0
		403	 0 0 0 1 0 0 0 0 0
		404	 0 0 0 0 0 0 0 1 1
		405	 0 0 0 0 0 1 0 0 0
		406	 1 0 0 1 0 0 0 0 0
		407	 0 0 0 0 1 1 0 0 0
		408	 0 0 1 0 0 0 0 0 0
		409	 1 0 0 0 0 0 0 0 0
		410	 1 1 0 1 1 0 0 0 0
		411	 0 1 1 0 0 0 0 0 0
		412	 0 0 0 0 0 0 0 0 1
		413	 0 0 0 0 0 0 1 0 0
		414	 0 0 0 1 1 0 0 0 0
		415	 0 0 0 0 1 1 0 0 0
		416	 0 0 0 1 1 0 1 1 0
		417	 0 0 0 0 0 0 0 0 1
		418	 0 0 0 0 1 0 0 1 0
		419	 0 0 0 0 0 1 0 0 1
		420	 0 0 0 1 0 0 0 0 0
		421	 0 0 0 0 0 1 0 0 1
		422	 0 0 0 0 0 0 1 1 0
		423	 0 0 0 1 1 0 0 0 0
		424	 0 1 0 0 0 0 0 0 0
		425	 1 1 0 0 0 0 0 0 0
		426	 0 0 0 0 1 1 0 1 1
		427	 1 1 0 0 0 0 0 0 0
		428	 0 0 0 1 0 0 1 0 0
		429	 0 0 0 0 0 1 0 0 0
		430	 1 0 0 1 0 0 0 0 0
		431	 0 0 1 0 0 0 0 0 0
		432	 0 0 0 0 0 0 0 1 1
		433	 0 0 1 0 0 0 0 0 0
		434	 0 0 0 0 0 0 0 0 1
		435	 1 0 0 0 0 0 0 0 0
		436	 0 0 0 0 0 0 0 1 1
		437	 1 0 0 0 0 0 0 0 0
		438	 0 0 0 0 0 0 0 0 1
		439	 0 0 0 1 1 0 1 1 0
		440	 0 0 0 0 0 0 1 0 0
		441	 0 0 0 1 0 0 0 0 0
		442	 0 0 0 0 0 0 1 1 0
		443	 0 0 0 0 0 0 1 0 0
		444	 0 0 0 0 1 0 0 1 0
		445	 0 1 1 0 1 1 0 0 0
		446	 0 0 0 0 1 1 0 1 1
		447	 0 0 0 0 0 0 1 0 0
		448	 0 1 1 0 0 0 0 0 0
		449	 0 0 0 1 0 0 0 0 0
		450	 0 0 0 0 0 1 0 0 0
		451	 0 0 0 0 0 0 0 1 0
		452	 1 1 0 1 1 0 0 0 0
		453	 0 1 1 0 0 0 0 0 0
		454	 0 0 0 0 1 0 0 1 0
		455	 0 1 0 0 0 0 0 0 0
		456	 0 0 0 0 0 0 0 0 1
		457	 0 0 0 0 0 0 0 0 1
		458	 0 0 0 0 0 0 0 1 1
		459	 0 0 0 0 0 0 0 1 1
		460	 0 1 1 0 0 0 0 0 0
		461	 0 0 0 0 0 0 1 0 0
		462	 1 0 0 1 0 0 0 0 0
		463	 0 0 1 0 0 0 0 0 0
		464	 0 0 0 0 0 0 0 0 1
		465	 0 0 0 0 0 0 0 1 1
		466	 0 0 0 0 0 0 0 1 1
		467	 0 1 0 0 1 0 0 0 0
		468	 0 0 0 0 0 0 0 1 1
		469	 1 0 0 0 0 0 0 0 0
		470	 0 0 0 1 0 0 0 0 0
		471	 0 0 0 0 0 0 1 1 0
		472	 1 0 0 0 0 0 0 0 0
		473	 0 0 0 0 0 0 0 0 1
		474	 0 0 0 0 0 0 1 1 0
		475	 0 0 0 0 0 1 0 0 0
		476	 0 0 0 0 0 0 1 1 0
		477	 0 0 1 0 0 1 0 0 0
		478	 0 0 0 1 1 0 0 0 0
		479	 0 0 0 1 1 0 1 1 0
		480	 0 0 1 0 0 0 0 0 0
		481	 0 0 0 0 1 0 0 0 0
		482	 0 0 0 1 0 0 0 0 0
		483	 0 0 0 0 0 1 0 0 0
		484	 0 0 0 0 0 0 1 0 0
		485	 0 0 1 0 0 0 0 0 0
		486	 1 0 0 0 0 0 0 0 0
		487	 0 0 1 0 0 0 0 0 0
		488	 0 1 1 0 1 1 0 0 0
		489	 0 0 0 1 1 0 0 0 0
		490	 0 0 0 1 0 0 1 0 0
		491	 0 0 0 0 0 0 0 0 1
		492	 0 1 0 0 0 0 0 0 0
		493	 0 0 0 0 0 0 1 1 0
		494	 0 0 0 1 0 0 0 0 0
		495	 0 1 0 0 0 0 0 0 0
		496	 1 0 0 0 0 0 0 0 0
		497	 1 0 0 0 0 0 0 0 0
		498	 1 1 0 0 0 0 0 0 0
		499	 0 1 0 0 0 0 0 0 0
		500	 0 0 0 1 1 0 0 0 0;

param	U_S :=
		1	43
		2	17
		3	16
		4	92
		5	22
		6	91
		7	91
		8	48
		9	41
		10	99
		11	72
		12	24
		13	21
		14	70
		15	10
		16	89
		17	38
		18	66
		19	46
		20	38
		21	55
		22	61
		23	16
		24	82
		25	28
		26	24
		27	77
		28	49
		29	6
		30	17
		31	100
		32	80
		33	50
		34	75
		35	15
		36	5
		37	16
		38	76
		39	28
		40	16
		41	28
		42	11
		43	11
		44	53
		45	21
		46	12
		47	77
		48	89
		49	14
		50	75
		51	46
		52	73
		53	76
		54	75
		55	78
		56	76
		57	74
		58	40
		59	100
		60	4
		61	78
		62	90
		63	24
		64	3
		65	95
		66	45
		67	11
		68	34
		69	77
		70	39
		71	60
		72	51
		73	80
		74	70
		75	75
		76	97
		77	58
		78	97
		79	100
		80	28
		81	58
		82	10
		83	11
		84	76
		85	18
		86	19
		87	19
		88	58
		89	55
		90	44
		91	93
		92	29
		93	50
		94	33
		95	46
		96	2
		97	82
		98	95
		99	23
		100	47
		101	7
		102	80
		103	49
		104	90
		105	81
		106	15
		107	34
		108	8
		109	8
		110	86
		111	32
		112	19
		113	65
		114	71
		115	44
		116	88
		117	90
		118	16
		119	34
		120	52
		121	90
		122	1
		123	95
		124	32
		125	35
		126	57
		127	35
		128	52
		129	34
		130	17
		131	46
		132	25
		133	80
		134	96
		135	48
		136	18
		137	70
		138	32
		139	34
		140	19
		141	96
		142	23
		143	75
		144	88
		145	10
		146	5
		147	92
		148	93
		149	90
		150	10
		151	90
		152	20
		153	66
		154	22
		155	9
		156	47
		157	7
		158	18
		159	15
		160	19
		161	82
		162	75
		163	95
		164	68
		165	10
		166	11
		167	77
		168	1
		169	84
		170	34
		171	88
		172	2
		173	25
		174	79
		175	21
		176	70
		177	9
		178	83
		179	44
		180	31
		181	84
		182	46
		183	9
		184	11
		185	99
		186	62
		187	29
		188	6
		189	40
		190	18
		191	40
		192	40
		193	19
		194	36
		195	30
		196	10
		197	56
		198	18
		199	14
		200	21
		201	2
		202	86
		203	61
		204	4
		205	9
		206	83
		207	70
		208	10
		209	16
		210	81
		211	78
		212	20
		213	74
		214	84
		215	95
		216	23
		217	61
		218	4
		219	54
		220	49
		221	49
		222	1
		223	8
		224	57
		225	97
		226	77
		227	98
		228	24
		229	35
		230	86
		231	7
		232	56
		233	68
		234	50
		235	66
		236	21
		237	19
		238	86
		239	3
		240	24
		241	78
		242	45
		243	53
		244	76
		245	65
		246	76
		247	67
		248	42
		249	12
		250	32
		251	13
		252	71
		253	69
		254	5
		255	88
		256	66
		257	98
		258	22
		259	23
		260	62
		261	40
		262	54
		263	39
		264	26
		265	68
		266	73
		267	28
		268	2
		269	69
		270	43
		271	35
		272	11
		273	23
		274	11
		275	53
		276	1
		277	22
		278	35
		279	4
		280	96
		281	69
		282	63
		283	53
		284	42
		285	68
		286	29
		287	6
		288	13
		289	66
		290	35
		291	76
		292	30
		293	21
		294	30
		295	55
		296	49
		297	6
		298	49
		299	36
		300	13
		301	73
		302	19
		303	56
		304	22
		305	82
		306	90
		307	58
		308	44
		309	65
		310	37
		311	94
		312	25
		313	96
		314	45
		315	52
		316	76
		317	20
		318	89
		319	41
		320	7
		321	60
		322	31
		323	62
		324	71
		325	93
		326	6
		327	67
		328	47
		329	97
		330	9
		331	81
		332	22
		333	26
		334	13
		335	40
		336	81
		337	3
		338	81
		339	40
		340	97
		341	95
		342	98
		343	20
		344	73
		345	27
		346	57
		347	18
		348	46
		349	50
		350	42
		351	84
		352	59
		353	46
		354	26
		355	43
		356	5
		357	21
		358	24
		359	4
		360	28
		361	48
		362	17
		363	97
		364	32
		365	44
		366	73
		367	67
		368	28
		369	52
		370	99
		371	19
		372	15
		373	90
		374	21
		375	8
		376	79
		377	88
		378	54
		379	55
		380	71
		381	87
		382	87
		383	25
		384	23
		385	12
		386	16
		387	91
		388	21
		389	68
		390	83
		391	30
		392	89
		393	63
		394	48
		395	63
		396	50
		397	78
		398	97
		399	82
		400	44
		401	29
		402	80
		403	5
		404	18
		405	39
		406	83
		407	74
		408	64
		409	15
		410	93
		411	52
		412	65
		413	96
		414	83
		415	28
		416	15
		417	84
		418	58
		419	42
		420	88
		421	2
		422	83
		423	21
		424	15
		425	42
		426	85
		427	82
		428	100
		429	68
		430	10
		431	17
		432	89
		433	9
		434	11
		435	46
		436	27
		437	21
		438	25
		439	69
		440	65
		441	39
		442	99
		443	21
		444	65
		445	47
		446	44
		447	33
		448	69
		449	26
		450	13
		451	17
		452	2
		453	13
		454	22
		455	64
		456	44
		457	27
		458	87
		459	7
		460	54
		461	90
		462	56
		463	88
		464	48
		465	72
		466	55
		467	25
		468	79
		469	49
		470	52
		471	94
		472	38
		473	16
		474	35
		475	3
		476	71
		477	74
		478	9
		479	2
		480	71
		481	51
		482	25
		483	53
		484	42
		485	29
		486	65
		487	5
		488	35
		489	99
		490	9
		491	38
		492	87
		493	48
		494	10
		495	99
		496	35
		497	40
		498	63
		499	52
		500	40;



